\ENCODING=ISO-8859-1
\Problem name: 

Maximize
 obj: x1 + x2 + x3 + x4 + x5 + x6 + x7 + x8 + x9 + x10 + x11 + x12 + x13 + x14
      + x15 + x16 + x17 + x18 + x19 + x20 + x21 + x22 + x23 + x24 + x25 + x26
      + x27 + x28 + x29 + x30 + x31 + x32 + x33 + x34 + x35 + x36 + x37 + x38
      + x39 + x40 + x41 + x42 + x43 + x44 + x45 + x46 + x47 + x48 + x49 + x50
      + x51 + x52 + x53 + x54 + x55 + x56 + x57 + x58 + x59 + x60 + x61 + x62
      + x63 + x64 + x65 + x66 + x67 + x68 + x69 + x70 + x71 + x72 + x73 + x74
      + x75 + x76 + x77 + x78 + x79 + x80 + x81 + x82 + x83 + x84 + x85 + x86
      + x87 + x88 + x89 + x90 + x91 + x92 + x93 + x94 + x95 + x96 + x97 + x98
      + x99 + x100 + x101 + x102 + x103 + x104 + x105 + x106 + x107 + x108
      + x109 + x110 + x111 + x112 + x113 + x114 + x115 + x116 + x117 + x118
      + x119 + x120 + x121 + x122 + x123 + x124 + x125 + x126 + x127 + x128
      + x129 + x130 + x131 + x132 + x133 + x134 + x135 + x136 + x137 + x138
      + x139 + x140 + x141 + x142 + x143 + x144 + x145 + x146 + x147 + x148
      + x149 + x150
Subject To
 _e_1_96#0:       x1 + x96 <= 1
 _e_1_64#1:       x1 + x64 <= 1
 _e_1_68#2:       x1 + x68 <= 1
 _e_1_69#3:       x1 + x69 <= 1
 _e_1_8#4:        x1 + x8 <= 1
 _e_1_18#5:       x1 + x18 <= 1
 _e_1_110#6:      x1 + x110 <= 1
 _e_1_47#7:       x1 + x47 <= 1
 _e_1_112#8:      x1 + x112 <= 1
 _e_1_50#9:       x1 + x50 <= 1
 _e_1_84#10:      x1 + x84 <= 1
 _e_1_142#11:     x1 + x142 <= 1
 _e_1_86#12:      x1 + x86 <= 1
 _e_1_59#13:      x1 + x59 <= 1
 _e_1_28#14:      x1 + x28 <= 1
 _e_1_61#15:      x1 + x61 <= 1
 _e_1_101#16:     x1 + x101 <= 1
 _e_2_65#17:      x2 + x65 <= 1
 _e_2_130#18:     x2 + x130 <= 1
 _e_2_99#19:      x2 + x99 <= 1
 _e_2_72#20:      x2 + x72 <= 1
 _e_2_14#21:      x2 + x14 <= 1
 _e_2_79#22:      x2 + x79 <= 1
 _e_2_81#23:      x2 + x81 <= 1
 _e_2_50#24:      x2 + x50 <= 1
 _e_2_57#25:      x2 + x57 <= 1
 _e_2_60#26:      x2 + x60 <= 1
 _e_3_83#27:      x3 + x83 <= 1
 _e_3_68#28:      x3 + x68 <= 1
 _e_3_49#29:      x3 + x49 <= 1
 _e_3_71#30:      x3 + x71 <= 1
 _e_3_72#31:      x3 + x72 <= 1
 _e_3_9#32:       x3 + x9 <= 1
 _e_3_103#33:     x3 + x103 <= 1
 _e_3_44#34:      x3 + x44 <= 1
 _e_3_143#35:     x3 + x143 <= 1
 _e_3_144#36:     x3 + x144 <= 1
 _e_3_113#37:     x3 + x113 <= 1
 _e_3_146#38:     x3 + x146 <= 1
 _e_3_115#39:     x3 + x115 <= 1
 _e_3_54#40:      x3 + x54 <= 1
 _e_3_105#41:     x3 + x105 <= 1
 _e_3_15#42:      x3 + x15 <= 1
 _e_3_29#43:      x3 + x29 <= 1
 _e_3_150#44:     x3 + x150 <= 1
 _e_4_10#45:      x4 + x10 <= 1
 _e_4_143#46:     x4 + x143 <= 1
 _e_4_148#47:     x4 + x148 <= 1
 _e_4_23#48:      x4 + x23 <= 1
 _e_4_38#49:      x4 + x38 <= 1
 _e_4_40#50:      x4 + x40 <= 1
 _e_4_56#51:      x4 + x56 <= 1
 _e_4_57#52:      x4 + x57 <= 1
 _e_4_60#53:      x4 + x60 <= 1
 _e_4_65#54:      x4 + x65 <= 1
 _e_4_66#55:      x4 + x66 <= 1
 _e_4_70#56:      x4 + x70 <= 1
 _e_4_72#57:      x4 + x72 <= 1
 _e_4_74#58:      x4 + x74 <= 1
 _e_4_78#59:      x4 + x78 <= 1
 _e_4_79#60:      x4 + x79 <= 1
 _e_4_85#61:      x4 + x85 <= 1
 _e_4_93#62:      x4 + x93 <= 1
 _e_4_107#63:     x4 + x107 <= 1
 _e_4_112#64:     x4 + x112 <= 1
 _e_4_114#65:     x4 + x114 <= 1
 _e_4_118#66:     x4 + x118 <= 1
 _e_4_120#67:     x4 + x120 <= 1
 _e_4_124#68:     x4 + x124 <= 1
 _e_5_129#69:     x5 + x129 <= 1
 _e_5_66#70:      x5 + x66 <= 1
 _e_5_68#71:      x5 + x68 <= 1
 _e_5_6#72:       x5 + x6 <= 1
 _e_5_7#73:       x5 + x7 <= 1
 _e_5_104#74:     x5 + x104 <= 1
 _e_5_42#75:      x5 + x42 <= 1
 _e_5_103#76:     x5 + x103 <= 1
 _e_5_44#77:      x5 + x44 <= 1
 _e_5_79#78:      x5 + x79 <= 1
 _e_5_113#79:     x5 + x113 <= 1
 _e_5_17#80:      x5 + x17 <= 1
 _e_5_85#81:      x5 + x85 <= 1
 _e_5_21#82:      x5 + x21 <= 1
 _e_6_32#83:      x6 + x32 <= 1
 _e_6_98#84:      x6 + x98 <= 1
 _e_6_131#85:     x6 + x131 <= 1
 _e_6_68#86:      x6 + x68 <= 1
 _e_6_102#87:     x6 + x102 <= 1
 _e_6_113#88:     x6 + x113 <= 1
 _e_6_8#89:       x6 + x8 <= 1
 _e_6_139#90:     x6 + x139 <= 1
 _e_6_140#91:     x6 + x140 <= 1
 _e_6_110#92:     x6 + x110 <= 1
 _e_6_79#93:      x6 + x79 <= 1
 _e_6_104#94:     x6 + x104 <= 1
 _e_6_116#95:     x6 + x116 <= 1
 _e_6_62#96:      x6 + x62 <= 1
 _e_6_22#97:      x6 + x22 <= 1
 _e_6_121#98:     x6 + x121 <= 1
 _e_6_47#99:      x6 + x47 <= 1
 _e_6_126#100:    x6 + x126 <= 1
 _e_7_34#101:     x7 + x34 <= 1
 _e_7_67#102:     x7 + x67 <= 1
 _e_7_101#103:    x7 + x101 <= 1
 _e_7_102#104:    x7 + x102 <= 1
 _e_7_72#105:     x7 + x72 <= 1
 _e_7_139#106:    x7 + x139 <= 1
 _e_7_130#107:    x7 + x130 <= 1
 _e_7_142#108:    x7 + x142 <= 1
 _e_7_45#109:     x7 + x45 <= 1
 _e_7_141#110:    x7 + x141 <= 1
 _e_7_26#111:     x7 + x26 <= 1
 _e_7_147#112:    x7 + x147 <= 1
 _e_7_21#113:     x7 + x21 <= 1
 _e_7_86#114:     x7 + x86 <= 1
 _e_7_61#115:     x7 + x61 <= 1
 _e_7_126#116:    x7 + x126 <= 1
 _e_7_122#117:    x7 + x122 <= 1
 _e_7_125#118:    x7 + x125 <= 1
 _e_7_69#119:     x7 + x69 <= 1
 _e_8_96#120:     x8 + x96 <= 1
 _e_8_69#121:     x8 + x69 <= 1
 _e_8_135#122:    x8 + x135 <= 1
 _e_8_74#123:     x8 + x74 <= 1
 _e_8_12#124:     x8 + x12 <= 1
 _e_8_145#125:    x8 + x145 <= 1
 _e_8_114#126:    x8 + x114 <= 1
 _e_8_84#127:     x8 + x84 <= 1
 _e_8_22#128:     x8 + x22 <= 1
 _e_8_24#129:     x8 + x24 <= 1
 _e_8_70#130:     x8 + x70 <= 1
 _e_8_61#131:     x8 + x61 <= 1
 _e_9_98#132:     x9 + x98 <= 1
 _e_9_102#133:    x9 + x102 <= 1
 _e_9_72#134:     x9 + x72 <= 1
 _e_9_41#135:     x9 + x41 <= 1
 _e_9_76#136:     x9 + x76 <= 1
 _e_9_77#137:     x9 + x77 <= 1
 _e_9_142#138:    x9 + x142 <= 1
 _e_9_45#139:     x9 + x45 <= 1
 _e_9_104#140:    x9 + x104 <= 1
 _e_9_147#141:    x9 + x147 <= 1
 _e_9_85#142:     x9 + x85 <= 1
 _e_9_25#143:     x9 + x25 <= 1
 _e_9_59#144:     x9 + x59 <= 1
 _e_9_94#145:     x9 + x94 <= 1
 _e_9_117#146:    x9 + x117 <= 1
 _e_10_19#147:    x10 + x19 <= 1
 _e_10_66#148:    x10 + x66 <= 1
 _e_10_36#149:    x10 + x36 <= 1
 _e_10_55#150:    x10 + x55 <= 1
 _e_10_70#151:    x10 + x70 <= 1
 _e_10_17#152:    x10 + x17 <= 1
 _e_10_41#153:    x10 + x41 <= 1
 _e_10_11#154:    x10 + x11 <= 1
 _e_10_109#155:   x10 + x109 <= 1
 _e_10_78#156:    x10 + x78 <= 1
 _e_10_113#157:   x10 + x113 <= 1
 _e_10_114#158:   x10 + x114 <= 1
 _e_10_51#159:    x10 + x51 <= 1
 _e_10_84#160:    x10 + x84 <= 1
 _e_10_62#161:    x10 + x62 <= 1
 _e_10_118#162:   x10 + x118 <= 1
 _e_10_73#163:    x10 + x73 <= 1
 _e_10_20#164:    x10 + x20 <= 1
 _e_11_61#165:    x11 + x61 <= 1
 _e_11_35#166:    x11 + x35 <= 1
 _e_11_17#167:    x11 + x17 <= 1
 _e_11_72#168:    x11 + x72 <= 1
 _e_11_41#169:    x11 + x41 <= 1
 _e_11_76#170:    x11 + x76 <= 1
 _e_11_141#171:   x11 + x141 <= 1
 _e_11_47#172:    x11 + x47 <= 1
 _e_11_113#173:   x11 + x113 <= 1
 _e_11_146#174:   x11 + x146 <= 1
 _e_11_117#175:   x11 + x117 <= 1
 _e_11_150#176:   x11 + x150 <= 1
 _e_11_57#177:    x11 + x57 <= 1
 _e_11_31#178:    x11 + x31 <= 1
 _e_11_92#179:    x11 + x92 <= 1
 _e_11_138#180:   x11 + x138 <= 1
 _e_11_95#181:    x11 + x95 <= 1
 _e_12_130#182:   x12 + x130 <= 1
 _e_12_139#183:   x12 + x139 <= 1
 _e_12_133#184:   x12 + x133 <= 1
 _e_12_107#185:   x12 + x107 <= 1
 _e_12_44#186:    x12 + x44 <= 1
 _e_12_72#187:    x12 + x72 <= 1
 _e_12_148#188:   x12 + x148 <= 1
 _e_12_89#189:    x12 + x89 <= 1
 _e_12_59#190:    x12 + x59 <= 1
 _e_12_28#191:    x12 + x28 <= 1
 _e_12_93#192:    x12 + x93 <= 1
 _e_13_32#193:    x13 + x32 <= 1
 _e_13_98#194:    x13 + x98 <= 1
 _e_13_35#195:    x13 + x35 <= 1
 _e_13_100#196:   x13 + x100 <= 1
 _e_13_54#197:    x13 + x54 <= 1
 _e_13_44#198:    x13 + x44 <= 1
 _e_13_45#199:    x13 + x45 <= 1
 _e_13_111#200:   x13 + x111 <= 1
 _e_13_80#201:    x13 + x80 <= 1
 _e_13_145#202:   x13 + x145 <= 1
 _e_13_50#203:    x13 + x50 <= 1
 _e_13_85#204:    x13 + x85 <= 1
 _e_13_150#205:   x13 + x150 <= 1
 _e_13_122#206:   x13 + x122 <= 1
 _e_13_60#207:    x13 + x60 <= 1
 _e_13_149#208:   x13 + x149 <= 1
 _e_14_131#209:   x14 + x131 <= 1
 _e_14_102#210:   x14 + x102 <= 1
 _e_14_44#211:    x14 + x44 <= 1
 _e_14_80#212:    x14 + x80 <= 1
 _e_14_115#213:   x14 + x115 <= 1
 _e_15_96#214:    x15 + x96 <= 1
 _e_15_38#215:    x15 + x38 <= 1
 _e_15_42#216:    x15 + x42 <= 1
 _e_15_142#217:   x15 + x142 <= 1
 _e_15_143#218:   x15 + x143 <= 1
 _e_15_116#219:   x15 + x116 <= 1
 _e_15_22#220:    x15 + x22 <= 1
 _e_15_23#221:    x15 + x23 <= 1
 _e_15_121#222:   x15 + x121 <= 1
 _e_15_27#223:    x15 + x27 <= 1
 _e_16_36#224:    x16 + x36 <= 1
 _e_16_109#225:   x16 + x109 <= 1
 _e_16_113#226:   x16 + x113 <= 1
 _e_16_52#227:    x16 + x52 <= 1
 _e_16_150#228:   x16 + x150 <= 1
 _e_16_122#229:   x16 + x122 <= 1
 _e_16_91#230:    x16 + x91 <= 1
 _e_17_103#231:   x17 + x103 <= 1
 _e_17_106#232:   x17 + x106 <= 1
 _e_17_88#233:    x17 + x88 <= 1
 _e_17_95#234:    x17 + x95 <= 1
 _e_18_96#235:    x18 + x96 <= 1
 _e_18_98#236:    x18 + x98 <= 1
 _e_18_104#237:   x18 + x104 <= 1
 _e_18_137#238:   x18 + x137 <= 1
 _e_18_106#239:   x18 + x106 <= 1
 _e_18_43#240:    x18 + x43 <= 1
 _e_18_79#241:    x18 + x79 <= 1
 _e_18_20#242:    x18 + x20 <= 1
 _e_18_55#243:    x18 + x55 <= 1
 _e_18_90#244:    x18 + x90 <= 1
 _e_18_59#245:    x18 + x59 <= 1
 _e_18_58#246:    x18 + x58 <= 1
 _e_19_130#247:   x19 + x130 <= 1
 _e_19_134#248:   x19 + x134 <= 1
 _e_19_45#249:    x19 + x45 <= 1
 _e_19_81#250:    x19 + x81 <= 1
 _e_19_82#251:    x19 + x82 <= 1
 _e_19_84#252:    x19 + x84 <= 1
 _e_19_149#253:   x19 + x149 <= 1
 _e_19_54#254:    x19 + x54 <= 1
 _e_19_56#255:    x19 + x56 <= 1
 _e_19_25#256:    x19 + x25 <= 1
 _e_19_125#257:   x19 + x125 <= 1
 _e_20_65#258:    x20 + x65 <= 1
 _e_20_99#259:    x20 + x99 <= 1
 _e_20_36#260:    x20 + x36 <= 1
 _e_20_39#261:    x20 + x39 <= 1
 _e_20_114#262:   x20 + x114 <= 1
 _e_20_77#263:    x20 + x77 <= 1
 _e_20_51#264:    x20 + x51 <= 1
 _e_20_25#265:    x20 + x25 <= 1
 _e_20_54#266:    x20 + x54 <= 1
 _e_20_55#267:    x20 + x55 <= 1
 _e_20_68#268:    x20 + x68 <= 1
 _e_20_59#269:    x20 + x59 <= 1
 _e_21_64#270:    x21 + x64 <= 1
 _e_21_32#271:    x21 + x32 <= 1
 _e_21_98#272:    x21 + x98 <= 1
 _e_21_106#273:   x21 + x106 <= 1
 _e_21_110#274:   x21 + x110 <= 1
 _e_21_79#275:    x21 + x79 <= 1
 _e_21_114#276:   x21 + x114 <= 1
 _e_21_55#277:    x21 + x55 <= 1
 _e_21_57#278:    x21 + x57 <= 1
 _e_21_26#279:    x21 + x26 <= 1
 _e_21_63#280:    x21 + x63 <= 1
 _e_21_69#281:    x21 + x69 <= 1
 _e_22_98#282:    x22 + x98 <= 1
 _e_22_131#283:   x22 + x131 <= 1
 _e_22_39#284:    x22 + x39 <= 1
 _e_22_41#285:    x22 + x41 <= 1
 _e_22_75#286:    x22 + x75 <= 1
 _e_22_125#287:   x22 + x125 <= 1
 _e_22_112#288:   x22 + x112 <= 1
 _e_22_72#289:    x22 + x72 <= 1
 _e_22_107#290:   x22 + x107 <= 1
 _e_22_149#291:   x22 + x149 <= 1
 _e_22_27#292:    x22 + x27 <= 1
 _e_22_56#293:    x22 + x56 <= 1
 _e_22_90#294:    x22 + x90 <= 1
 _e_22_123#295:   x22 + x123 <= 1
 _e_22_58#296:    x22 + x58 <= 1
 _e_23_33#297:    x23 + x33 <= 1
 _e_23_130#298:   x23 + x130 <= 1
 _e_23_101#299:   x23 + x101 <= 1
 _e_23_134#300:   x23 + x134 <= 1
 _e_23_77#301:    x23 + x77 <= 1
 _e_23_49#302:    x23 + x49 <= 1
 _e_23_146#303:   x23 + x146 <= 1
 _e_23_116#304:   x23 + x116 <= 1
 _e_23_53#305:    x23 + x53 <= 1
 _e_23_118#306:   x23 + x118 <= 1
 _e_23_122#307:   x23 + x122 <= 1
 _e_23_30#308:    x23 + x30 <= 1
 _e_23_63#309:    x23 + x63 <= 1
 _e_24_134#310:   x24 + x134 <= 1
 _e_24_105#311:   x24 + x105 <= 1
 _e_24_140#312:   x24 + x140 <= 1
 _e_24_46#313:    x24 + x46 <= 1
 _e_24_104#314:   x24 + x104 <= 1
 _e_25_66#315:    x25 + x66 <= 1
 _e_25_136#316:   x25 + x136 <= 1
 _e_25_44#317:    x25 + x44 <= 1
 _e_25_45#318:    x25 + x45 <= 1
 _e_25_46#319:    x25 + x46 <= 1
 _e_25_48#320:    x25 + x48 <= 1
 _e_25_84#321:    x25 + x84 <= 1
 _e_25_117#322:   x25 + x117 <= 1
 _e_25_120#323:   x25 + x120 <= 1
 _e_25_95#324:    x25 + x95 <= 1
 _e_25_30#325:    x25 + x30 <= 1
 _e_25_127#326:   x25 + x127 <= 1
 _e_26_66#327:    x26 + x66 <= 1
 _e_26_132#328:   x26 + x132 <= 1
 _e_26_41#329:    x26 + x41 <= 1
 _e_26_77#330:    x26 + x77 <= 1
 _e_26_79#331:    x26 + x79 <= 1
 _e_26_115#332:   x26 + x115 <= 1
 _e_26_150#333:   x26 + x150 <= 1
 _e_26_105#334:   x26 + x105 <= 1
 _e_26_137#335:   x26 + x137 <= 1
 _e_26_89#336:    x26 + x89 <= 1
 _e_26_122#337:   x26 + x122 <= 1
 _e_26_93#338:    x26 + x93 <= 1
 _e_26_94#339:    x26 + x94 <= 1
 _e_27_65#340:    x27 + x65 <= 1
 _e_27_67#341:    x27 + x67 <= 1
 _e_27_118#342:   x27 + x118 <= 1
 _e_27_40#343:    x27 + x40 <= 1
 _e_27_73#344:    x27 + x73 <= 1
 _e_27_30#345:    x27 + x30 <= 1
 _e_27_43#346:    x27 + x43 <= 1
 _e_27_143#347:   x27 + x143 <= 1
 _e_27_112#348:   x27 + x112 <= 1
 _e_27_113#349:   x27 + x113 <= 1
 _e_27_149#350:   x27 + x149 <= 1
 _e_27_105#351:   x27 + x105 <= 1
 _e_27_121#352:   x27 + x121 <= 1
 _e_27_86#353:    x27 + x86 <= 1
 _e_27_94#354:    x27 + x94 <= 1
 _e_28_133#355:   x28 + x133 <= 1
 _e_28_102#356:   x28 + x102 <= 1
 _e_28_78#357:    x28 + x78 <= 1
 _e_28_111#358:   x28 + x111 <= 1
 _e_28_51#359:    x28 + x51 <= 1
 _e_28_150#360:   x28 + x150 <= 1
 _e_28_88#361:    x28 + x88 <= 1
 _e_28_57#362:    x28 + x57 <= 1
 _e_28_61#363:    x28 + x61 <= 1
 _e_29_32#364:    x29 + x32 <= 1
 _e_29_97#365:    x29 + x97 <= 1
 _e_29_134#366:   x29 + x134 <= 1
 _e_29_74#367:    x29 + x74 <= 1
 _e_29_77#368:    x29 + x77 <= 1
 _e_29_80#369:    x29 + x80 <= 1
 _e_29_114#370:   x29 + x114 <= 1
 _e_29_53#371:    x29 + x53 <= 1
 _e_29_55#372:    x29 + x55 <= 1
 _e_29_88#373:    x29 + x88 <= 1
 _e_29_93#374:    x29 + x93 <= 1
 _e_30_82#375:    x30 + x82 <= 1
 _e_30_103#376:   x30 + x103 <= 1
 _e_30_136#377:   x30 + x136 <= 1
 _e_30_41#378:    x30 + x41 <= 1
 _e_30_76#379:    x30 + x76 <= 1
 _e_30_141#380:   x30 + x141 <= 1
 _e_30_78#381:    x30 + x78 <= 1
 _e_30_79#382:    x30 + x79 <= 1
 _e_30_114#383:   x30 + x114 <= 1
 _e_30_93#384:    x30 + x93 <= 1
 _e_30_125#385:   x30 + x125 <= 1
 _e_30_94#386:    x30 + x94 <= 1
 _e_31_32#387:    x31 + x32 <= 1
 _e_31_129#388:   x31 + x129 <= 1
 _e_31_34#389:    x31 + x34 <= 1
 _e_31_139#390:   x31 + x139 <= 1
 _e_31_69#391:    x31 + x69 <= 1
 _e_31_134#392:   x31 + x134 <= 1
 _e_31_142#393:   x31 + x142 <= 1
 _e_31_74#394:    x31 + x74 <= 1
 _e_31_46#395:    x31 + x46 <= 1
 _e_31_48#396:    x31 + x48 <= 1
 _e_31_115#397:   x31 + x115 <= 1
 _e_31_78#398:    x31 + x78 <= 1
 _e_31_150#399:   x31 + x150 <= 1
 _e_31_87#400:    x31 + x87 <= 1
 _e_31_121#401:   x31 + x121 <= 1
 _e_31_86#402:    x31 + x86 <= 1
 _e_31_125#403:   x31 + x125 <= 1
 _e_31_53#404:    x31 + x53 <= 1
 _e_32_107#405:   x32 + x107 <= 1
 _e_32_70#406:    x32 + x70 <= 1
 _e_32_135#407:   x32 + x135 <= 1
 _e_32_39#408:    x32 + x39 <= 1
 _e_32_77#409:    x32 + x77 <= 1
 _e_32_80#410:    x32 + x80 <= 1
 _e_32_147#411:   x32 + x147 <= 1
 _e_32_52#412:    x32 + x52 <= 1
 _e_32_149#413:   x32 + x149 <= 1
 _e_32_56#414:    x32 + x56 <= 1
 _e_32_57#415:    x32 + x57 <= 1
 _e_32_58#416:    x32 + x58 <= 1
 _e_32_38#417:    x32 + x38 <= 1
 _e_33_129#418:   x33 + x129 <= 1
 _e_33_97#419:    x33 + x97 <= 1
 _e_33_104#420:   x33 + x104 <= 1
 _e_33_105#421:   x33 + x105 <= 1
 _e_33_44#422:    x33 + x44 <= 1
 _e_33_110#423:   x33 + x110 <= 1
 _e_33_82#424:    x33 + x82 <= 1
 _e_33_150#425:   x33 + x150 <= 1
 _e_34_42#426:    x34 + x42 <= 1
 _e_34_109#427:   x34 + x109 <= 1
 _e_34_142#428:   x34 + x142 <= 1
 _e_34_113#429:   x34 + x113 <= 1
 _e_34_52#430:    x34 + x52 <= 1
 _e_34_127#431:   x34 + x127 <= 1
 _e_34_138#432:   x34 + x138 <= 1
 _e_35_139#433:   x35 + x139 <= 1
 _e_35_69#434:    x35 + x69 <= 1
 _e_35_72#435:    x35 + x72 <= 1
 _e_35_83#436:    x35 + x83 <= 1
 _e_35_54#437:    x35 + x54 <= 1
 _e_36_107#438:   x36 + x107 <= 1
 _e_36_49#439:    x36 + x49 <= 1
 _e_36_113#440:   x36 + x113 <= 1
 _e_36_137#441:   x36 + x137 <= 1
 _e_36_39#442:    x36 + x39 <= 1
 _e_36_76#443:    x36 + x76 <= 1
 _e_36_145#444:   x36 + x145 <= 1
 _e_36_115#445:   x36 + x115 <= 1
 _e_36_148#446:   x36 + x148 <= 1
 _e_36_57#447:    x36 + x57 <= 1
 _e_36_87#448:    x36 + x87 <= 1
 _e_36_123#449:   x36 + x123 <= 1
 _e_36_92#450:    x36 + x92 <= 1
 _e_36_74#451:    x36 + x74 <= 1
 _e_37_64#452:    x37 + x64 <= 1
 _e_37_68#453:    x37 + x68 <= 1
 _e_37_139#454:   x37 + x139 <= 1
 _e_37_143#455:   x37 + x143 <= 1
 _e_37_84#456:    x37 + x84 <= 1
 _e_37_150#457:   x37 + x150 <= 1
 _e_37_55#458:    x37 + x55 <= 1
 _e_37_120#459:   x37 + x120 <= 1
 _e_37_92#460:    x37 + x92 <= 1
 _e_37_63#461:    x37 + x63 <= 1
 _e_38_65#462:    x38 + x65 <= 1
 _e_38_98#463:    x38 + x98 <= 1
 _e_38_133#464:   x38 + x133 <= 1
 _e_38_103#465:   x38 + x103 <= 1
 _e_38_105#466:   x38 + x105 <= 1
 _e_38_44#467:    x38 + x44 <= 1
 _e_38_109#468:   x38 + x109 <= 1
 _e_38_77#469:    x38 + x77 <= 1
 _e_38_49#470:    x38 + x49 <= 1
 _e_38_82#471:    x38 + x82 <= 1
 _e_38_57#472:    x38 + x57 <= 1
 _e_38_94#473:    x38 + x94 <= 1
 _e_39_96#474:    x39 + x96 <= 1
 _e_39_136#475:   x39 + x136 <= 1
 _e_39_140#476:   x39 + x140 <= 1
 _e_39_43#477:    x39 + x43 <= 1
 _e_39_44#478:    x39 + x44 <= 1
 _e_39_46#479:    x39 + x46 <= 1
 _e_39_47#480:    x39 + x47 <= 1
 _e_39_83#481:    x39 + x83 <= 1
 _e_39_123#482:   x39 + x123 <= 1
 _e_39_62#483:    x39 + x62 <= 1
 _e_39_127#484:   x39 + x127 <= 1
 _e_40_128#485:   x40 + x128 <= 1
 _e_40_98#486:    x40 + x98 <= 1
 _e_40_74#487:    x40 + x74 <= 1
 _e_40_139#488:   x40 + x139 <= 1
 _e_40_76#489:    x40 + x76 <= 1
 _e_40_94#490:    x40 + x94 <= 1
 _e_40_86#491:    x40 + x86 <= 1
 _e_40_87#492:    x40 + x87 <= 1
 _e_40_62#493:    x40 + x62 <= 1
 _e_40_138#494:   x40 + x138 <= 1
 _e_40_126#495:   x40 + x126 <= 1
 _e_41_96#496:    x41 + x96 <= 1
 _e_41_65#497:    x41 + x65 <= 1
 _e_41_98#498:    x41 + x98 <= 1
 _e_41_150#499:   x41 + x150 <= 1
 _e_41_129#500:   x41 + x129 <= 1
 _e_41_77#501:    x41 + x77 <= 1
 _e_41_46#502:    x41 + x46 <= 1
 _e_41_111#503:   x41 + x111 <= 1
 _e_41_42#504:    x41 + x42 <= 1
 _e_41_85#505:    x41 + x85 <= 1
 _e_41_73#506:    x41 + x73 <= 1
 _e_41_120#507:   x41 + x120 <= 1
 _e_41_110#508:   x41 + x110 <= 1
 _e_41_106#509:   x41 + x106 <= 1
 _e_41_53#510:    x41 + x53 <= 1
 _e_42_64#511:    x42 + x64 <= 1
 _e_42_100#512:   x42 + x100 <= 1
 _e_42_74#513:    x42 + x74 <= 1
 _e_42_77#514:    x42 + x77 <= 1
 _e_42_47#515:    x42 + x47 <= 1
 _e_42_113#516:   x42 + x113 <= 1
 _e_42_51#517:    x42 + x51 <= 1
 _e_42_84#518:    x42 + x84 <= 1
 _e_42_149#519:   x42 + x149 <= 1
 _e_42_88#520:    x42 + x88 <= 1
 _e_42_58#521:    x42 + x58 <= 1
 _e_42_143#522:   x42 + x143 <= 1
 _e_42_138#523:   x42 + x138 <= 1
 _e_42_94#524:    x42 + x94 <= 1
 _e_42_85#525:    x42 + x85 <= 1
 _e_43_100#526:   x43 + x100 <= 1
 _e_43_134#527:   x43 + x134 <= 1
 _e_43_102#528:   x43 + x102 <= 1
 _e_43_137#529:   x43 + x137 <= 1
 _e_43_74#530:    x43 + x74 <= 1
 _e_43_112#531:   x43 + x112 <= 1
 _e_43_118#532:   x43 + x118 <= 1
 _e_44_96#533:    x44 + x96 <= 1
 _e_44_45#534:    x44 + x45 <= 1
 _e_44_82#535:    x44 + x82 <= 1
 _e_44_56#536:    x44 + x56 <= 1
 _e_44_134#537:   x44 + x134 <= 1
 _e_45_131#538:   x45 + x131 <= 1
 _e_45_68#539:    x45 + x68 <= 1
 _e_45_55#540:    x45 + x55 <= 1
 _e_45_121#541:   x45 + x121 <= 1
 _e_46_132#542:   x46 + x132 <= 1
 _e_46_74#543:    x46 + x74 <= 1
 _e_46_140#544:   x46 + x140 <= 1
 _e_46_110#545:   x46 + x110 <= 1
 _e_46_113#546:   x46 + x113 <= 1
 _e_46_82#547:    x46 + x82 <= 1
 _e_46_56#548:    x46 + x56 <= 1
 _e_46_142#549:   x46 + x142 <= 1
 _e_46_57#550:    x46 + x57 <= 1
 _e_46_127#551:   x46 + x127 <= 1
 _e_46_60#552:    x46 + x60 <= 1
 _e_46_94#553:    x46 + x94 <= 1
 _e_46_137#554:   x46 + x137 <= 1
 _e_47_86#555:    x47 + x86 <= 1
 _e_47_104#556:   x47 + x104 <= 1
 _e_47_140#557:   x47 + x140 <= 1
 _e_47_150#558:   x47 + x150 <= 1
 _e_47_87#559:    x47 + x87 <= 1
 _e_47_123#560:   x47 + x123 <= 1
 _e_47_134#561:   x47 + x134 <= 1
 _e_48_65#562:    x48 + x65 <= 1
 _e_48_134#563:   x48 + x134 <= 1
 _e_48_51#564:    x48 + x51 <= 1
 _e_48_71#565:    x48 + x71 <= 1
 _e_48_104#566:   x48 + x104 <= 1
 _e_48_103#567:   x48 + x103 <= 1
 _e_48_111#568:   x48 + x111 <= 1
 _e_48_50#569:    x48 + x50 <= 1
 _e_48_83#570:    x48 + x83 <= 1
 _e_48_116#571:   x48 + x116 <= 1
 _e_48_90#572:    x48 + x90 <= 1
 _e_48_123#573:   x48 + x123 <= 1
 _e_48_124#574:   x48 + x124 <= 1
 _e_48_94#575:    x48 + x94 <= 1
 _e_49_128#576:   x49 + x128 <= 1
 _e_49_67#577:    x49 + x67 <= 1
 _e_49_102#578:   x49 + x102 <= 1
 _e_49_55#579:    x49 + x55 <= 1
 _e_49_116#580:   x49 + x116 <= 1
 _e_49_117#581:   x49 + x117 <= 1
 _e_50_118#582:   x50 + x118 <= 1
 _e_50_130#583:   x50 + x130 <= 1
 _e_50_104#584:   x50 + x104 <= 1
 _e_50_73#585:    x50 + x73 <= 1
 _e_50_75#586:    x50 + x75 <= 1
 _e_50_146#587:   x50 + x146 <= 1
 _e_50_147#588:   x50 + x147 <= 1
 _e_50_149#589:   x50 + x149 <= 1
 _e_50_54#590:    x50 + x54 <= 1
 _e_50_92#591:    x50 + x92 <= 1
 _e_51_66#592:    x51 + x66 <= 1
 _e_51_100#593:   x51 + x100 <= 1
 _e_51_74#594:    x51 + x74 <= 1
 _e_51_70#595:    x51 + x70 <= 1
 _e_51_92#596:    x51 + x92 <= 1
 _e_51_139#597:   x51 + x139 <= 1
 _e_51_76#598:    x51 + x76 <= 1
 _e_51_110#599:   x51 + x110 <= 1
 _e_51_140#600:   x51 + x140 <= 1
 _e_51_117#601:   x51 + x117 <= 1
 _e_51_121#602:   x51 + x121 <= 1
 _e_51_63#603:    x51 + x63 <= 1
 _e_52_67#604:    x52 + x67 <= 1
 _e_52_135#605:   x52 + x135 <= 1
 _e_52_73#606:    x52 + x73 <= 1
 _e_52_147#607:   x52 + x147 <= 1
 _e_52_56#608:    x52 + x56 <= 1
 _e_52_57#609:    x52 + x57 <= 1
 _e_52_58#610:    x52 + x58 <= 1
 _e_52_123#611:   x52 + x123 <= 1
 _e_52_95#612:    x52 + x95 <= 1
 _e_53_68#613:    x53 + x68 <= 1
 _e_53_102#614:   x53 + x102 <= 1
 _e_53_63#615:    x53 + x63 <= 1
 _e_53_74#616:    x53 + x74 <= 1
 _e_53_119#617:   x53 + x119 <= 1
 _e_53_77#618:    x53 + x77 <= 1
 _e_53_93#619:    x53 + x93 <= 1
 _e_53_111#620:   x53 + x111 <= 1
 _e_53_80#621:    x53 + x80 <= 1
 _e_53_115#622:   x53 + x115 <= 1
 _e_53_105#623:   x53 + x105 <= 1
 _e_53_100#624:   x53 + x100 <= 1
 _e_53_123#625:   x53 + x123 <= 1
 _e_54_128#626:   x54 + x128 <= 1
 _e_54_74#627:    x54 + x74 <= 1
 _e_54_75#628:    x54 + x75 <= 1
 _e_54_93#629:    x54 + x93 <= 1
 _e_54_80#630:    x54 + x80 <= 1
 _e_54_145#631:   x54 + x145 <= 1
 _e_54_119#632:   x54 + x119 <= 1
 _e_54_56#633:    x54 + x56 <= 1
 _e_54_57#634:    x54 + x57 <= 1
 _e_54_106#635:   x54 + x106 <= 1
 _e_55_131#636:   x55 + x131 <= 1
 _e_55_102#637:   x55 + x102 <= 1
 _e_55_113#638:   x55 + x113 <= 1
 _e_55_72#639:    x55 + x72 <= 1
 _e_55_137#640:   x55 + x137 <= 1
 _e_55_145#641:   x55 + x145 <= 1
 _e_55_144#642:   x55 + x144 <= 1
 _e_55_86#643:    x55 + x86 <= 1
 _e_55_89#644:    x55 + x89 <= 1
 _e_55_56#645:    x55 + x56 <= 1
 _e_55_84#646:    x55 + x84 <= 1
 _e_55_74#647:    x55 + x74 <= 1
 _e_56_128#648:   x56 + x128 <= 1
 _e_56_136#649:   x56 + x136 <= 1
 _e_56_144#650:   x56 + x144 <= 1
 _e_56_145#651:   x56 + x145 <= 1
 _e_56_146#652:   x56 + x146 <= 1
 _e_56_71#653:    x56 + x71 <= 1
 _e_56_78#654:    x56 + x78 <= 1
 _e_56_81#655:    x56 + x81 <= 1
 _e_56_92#656:    x56 + x92 <= 1
 _e_56_94#657:    x56 + x94 <= 1
 _e_56_110#658:   x56 + x110 <= 1
 _e_56_111#659:   x56 + x111 <= 1
 _e_56_116#660:   x56 + x116 <= 1
 _e_56_127#661:   x56 + x127 <= 1
 _e_57_68#662:    x57 + x68 <= 1
 _e_57_107#663:   x57 + x107 <= 1
 _e_57_64#664:    x57 + x64 <= 1
 _e_57_137#665:   x57 + x137 <= 1
 _e_57_109#666:   x57 + x109 <= 1
 _e_57_115#667:   x57 + x115 <= 1
 _e_57_58#668:    x57 + x58 <= 1
 _e_57_123#669:   x57 + x123 <= 1
 _e_57_125#670:   x57 + x125 <= 1
 _e_57_84#671:    x57 + x84 <= 1
 _e_58_131#672:   x58 + x131 <= 1
 _e_58_68#673:    x58 + x68 <= 1
 _e_58_72#674:    x58 + x72 <= 1
 _e_58_73#675:    x58 + x73 <= 1
 _e_58_114#676:   x58 + x114 <= 1
 _e_58_142#677:   x58 + x142 <= 1
 _e_58_115#678:   x58 + x115 <= 1
 _e_58_147#679:   x58 + x147 <= 1
 _e_58_94#680:    x58 + x94 <= 1
 _e_59_98#681:    x59 + x98 <= 1
 _e_59_132#682:   x59 + x132 <= 1
 _e_59_97#683:    x59 + x97 <= 1
 _e_59_76#684:    x59 + x76 <= 1
 _e_59_81#685:    x59 + x81 <= 1
 _e_59_117#686:   x59 + x117 <= 1
 _e_59_86#687:    x59 + x86 <= 1
 _e_59_87#688:    x59 + x87 <= 1
 _e_59_116#689:   x59 + x116 <= 1
 _e_59_127#690:   x59 + x127 <= 1
 _e_60_96#691:    x60 + x96 <= 1
 _e_60_100#692:   x60 + x100 <= 1
 _e_60_132#693:   x60 + x132 <= 1
 _e_60_73#694:    x60 + x73 <= 1
 _e_60_82#695:    x60 + x82 <= 1
 _e_60_114#696:   x60 + x114 <= 1
 _e_60_116#697:   x60 + x116 <= 1
 _e_60_78#698:    x60 + x78 <= 1
 _e_60_87#699:    x60 + x87 <= 1
 _e_60_93#700:    x60 + x93 <= 1
 _e_60_94#701:    x60 + x94 <= 1
 _e_61_96#702:    x61 + x96 <= 1
 _e_61_66#703:    x61 + x66 <= 1
 _e_61_73#704:    x61 + x73 <= 1
 _e_61_76#705:    x61 + x76 <= 1
 _e_61_147#706:   x61 + x147 <= 1
 _e_61_149#707:   x61 + x149 <= 1
 _e_61_87#708:    x61 + x87 <= 1
 _e_61_83#709:    x61 + x83 <= 1
 _e_61_71#710:    x61 + x71 <= 1
 _e_62_65#711:    x62 + x65 <= 1
 _e_62_130#712:   x62 + x130 <= 1
 _e_62_69#713:    x62 + x69 <= 1
 _e_62_129#714:   x62 + x129 <= 1
 _e_62_94#715:    x62 + x94 <= 1
 _e_62_78#716:    x62 + x78 <= 1
 _e_62_79#717:    x62 + x79 <= 1
 _e_62_136#718:   x62 + x136 <= 1
 _e_62_85#719:    x62 + x85 <= 1
 _e_62_122#720:   x62 + x122 <= 1
 _e_62_74#721:    x62 + x74 <= 1
 _e_62_126#722:   x62 + x126 <= 1
 _e_62_117#723:   x62 + x117 <= 1
 _e_63_129#724:   x63 + x129 <= 1
 _e_63_110#725:   x63 + x110 <= 1
 _e_63_79#726:    x63 + x79 <= 1
 _e_63_94#727:    x63 + x94 <= 1
 _e_64_83#728:    x64 + x83 <= 1
 _e_64_97#729:    x64 + x97 <= 1
 _e_64_104#730:   x64 + x104 <= 1
 _e_64_129#731:   x64 + x129 <= 1
 _e_64_79#732:    x64 + x79 <= 1
 _e_64_81#733:    x64 + x81 <= 1
 _e_64_147#734:   x64 + x147 <= 1
 _e_65_91#735:    x65 + x91 <= 1
 _e_65_102#736:   x65 + x102 <= 1
 _e_65_66#737:    x65 + x66 <= 1
 _e_65_78#738:    x65 + x78 <= 1
 _e_65_147#739:   x65 + x147 <= 1
 _e_65_105#740:   x65 + x105 <= 1
 _e_65_88#741:    x65 + x88 <= 1
 _e_66_83#742:    x66 + x83 <= 1
 _e_66_70#743:    x66 + x70 <= 1
 _e_66_75#744:    x66 + x75 <= 1
 _e_66_125#745:   x66 + x125 <= 1
 _e_66_143#746:   x66 + x143 <= 1
 _e_66_112#747:   x66 + x112 <= 1
 _e_66_114#748:   x66 + x114 <= 1
 _e_66_124#749:   x66 + x124 <= 1
 _e_67_91#750:    x67 + x91 <= 1
 _e_67_114#751:   x67 + x114 <= 1
 _e_67_116#752:   x67 + x116 <= 1
 _e_67_90#753:    x67 + x90 <= 1
 _e_68_74#754:    x68 + x74 <= 1
 _e_68_119#755:   x68 + x119 <= 1
 _e_68_78#756:    x68 + x78 <= 1
 _e_68_81#757:    x68 + x81 <= 1
 _e_68_89#758:    x68 + x89 <= 1
 _e_68_120#759:   x68 + x120 <= 1
 _e_68_123#760:   x68 + x123 <= 1
 _e_68_125#761:   x68 + x125 <= 1
 _e_69_97#762:    x69 + x97 <= 1
 _e_69_71#763:    x69 + x71 <= 1
 _e_69_108#764:   x69 + x108 <= 1
 _e_69_113#765:   x69 + x113 <= 1
 _e_69_75#766:    x69 + x75 <= 1
 _e_69_83#767:    x69 + x83 <= 1
 _e_69_90#768:    x69 + x90 <= 1
 _e_69_92#769:    x69 + x92 <= 1
 _e_70_112#770:   x70 + x112 <= 1
 _e_70_113#771:   x70 + x113 <= 1
 _e_70_105#772:   x70 + x105 <= 1
 _e_70_96#773:    x70 + x96 <= 1
 _e_70_80#774:    x70 + x80 <= 1
 _e_70_104#775:   x70 + x104 <= 1
 _e_70_84#776:    x70 + x84 <= 1
 _e_70_147#777:   x70 + x147 <= 1
 _e_70_72#778:    x70 + x72 <= 1
 _e_70_122#779:   x70 + x122 <= 1
 _e_70_93#780:    x70 + x93 <= 1
 _e_70_117#781:   x70 + x117 <= 1
 _e_71_97#782:    x71 + x97 <= 1
 _e_71_98#783:    x71 + x98 <= 1
 _e_71_131#784:   x71 + x131 <= 1
 _e_71_129#785:   x71 + x129 <= 1
 _e_71_104#786:   x71 + x104 <= 1
 _e_71_83#787:    x71 + x83 <= 1
 _e_71_146#788:   x71 + x146 <= 1
 _e_71_115#789:   x71 + x115 <= 1
 _e_71_148#790:   x71 + x148 <= 1
 _e_71_90#791:    x71 + x90 <= 1
 _e_71_101#792:   x71 + x101 <= 1
 _e_72_134#793:   x72 + x134 <= 1
 _e_72_82#794:    x72 + x82 <= 1
 _e_72_73#795:    x72 + x73 <= 1
 _e_72_114#796:   x72 + x114 <= 1
 _e_72_85#797:    x72 + x85 <= 1
 _e_72_137#798:   x72 + x137 <= 1
 _e_72_117#799:   x72 + x117 <= 1
 _e_73_128#800:   x73 + x128 <= 1
 _e_73_99#801:    x73 + x99 <= 1
 _e_73_105#802:   x73 + x105 <= 1
 _e_73_124#803:   x73 + x124 <= 1
 _e_73_131#804:   x73 + x131 <= 1
 _e_73_119#805:   x73 + x119 <= 1
 _e_73_121#806:   x73 + x121 <= 1
 _e_74_133#807:   x74 + x133 <= 1
 _e_74_91#808:    x74 + x91 <= 1
 _e_74_94#809:    x74 + x94 <= 1
 _e_74_98#810:    x74 + x98 <= 1
 _e_74_99#811:    x74 + x99 <= 1
 _e_74_100#812:   x74 + x100 <= 1
 _e_74_119#813:   x74 + x119 <= 1
 _e_74_124#814:   x74 + x124 <= 1
 _e_75_129#815:   x75 + x129 <= 1
 _e_75_131#816:   x75 + x131 <= 1
 _e_75_77#817:    x75 + x77 <= 1
 _e_75_120#818:   x75 + x120 <= 1
 _e_75_89#819:    x75 + x89 <= 1
 _e_75_122#820:   x75 + x122 <= 1
 _e_76_128#821:   x76 + x128 <= 1
 _e_76_91#822:    x76 + x91 <= 1
 _e_76_112#823:   x76 + x112 <= 1
 _e_77_128#824:   x77 + x128 <= 1
 _e_77_87#825:    x77 + x87 <= 1
 _e_77_133#826:   x77 + x133 <= 1
 _e_77_103#827:   x77 + x103 <= 1
 _e_77_136#828:   x77 + x136 <= 1
 _e_77_90#829:    x77 + x90 <= 1
 _e_77_122#830:   x77 + x122 <= 1
 _e_77_89#831:    x77 + x89 <= 1
 _e_77_85#832:    x77 + x85 <= 1
 _e_78_136#833:   x78 + x136 <= 1
 _e_78_111#834:   x78 + x111 <= 1
 _e_78_82#835:    x78 + x82 <= 1
 _e_79_128#836:   x79 + x128 <= 1
 _e_79_140#837:   x79 + x140 <= 1
 _e_80_98#838:    x80 + x98 <= 1
 _e_80_146#839:   x80 + x146 <= 1
 _e_80_121#840:   x80 + x121 <= 1
 _e_80_126#841:   x80 + x126 <= 1
 _e_80_127#842:   x80 + x127 <= 1
 _e_81_97#843:    x81 + x97 <= 1
 _e_81_135#844:   x81 + x135 <= 1
 _e_81_145#845:   x81 + x145 <= 1
 _e_81_148#846:   x81 + x148 <= 1
 _e_81_117#847:   x81 + x117 <= 1
 _e_81_89#848:    x81 + x89 <= 1
 _e_81_124#849:   x81 + x124 <= 1
 _e_82_100#850:   x82 + x100 <= 1
 _e_82_101#851:   x82 + x101 <= 1
 _e_82_97#852:    x82 + x97 <= 1
 _e_82_109#853:   x82 + x109 <= 1
 _e_82_112#854:   x82 + x112 <= 1
 _e_82_86#855:    x82 + x86 <= 1
 _e_82_125#856:   x82 + x125 <= 1
 _e_82_133#857:   x82 + x133 <= 1
 _e_83_106#858:   x83 + x106 <= 1
 _e_83_142#859:   x83 + x142 <= 1
 _e_83_99#860:    x83 + x99 <= 1
 _e_83_116#861:   x83 + x116 <= 1
 _e_84_105#862:   x84 + x105 <= 1
 _e_84_107#863:   x84 + x107 <= 1
 _e_84_108#864:   x84 + x108 <= 1
 _e_84_93#865:    x84 + x93 <= 1
 _e_84_146#866:   x84 + x146 <= 1
 _e_84_89#867:    x84 + x89 <= 1
 _e_84_137#868:   x84 + x137 <= 1
 _e_84_122#869:   x84 + x122 <= 1
 _e_85_97#870:    x85 + x97 <= 1
 _e_85_130#871:   x85 + x130 <= 1
 _e_85_113#872:   x85 + x113 <= 1
 _e_85_149#873:   x85 + x149 <= 1
 _e_85_90#874:    x85 + x90 <= 1
 _e_85_106#875:   x85 + x106 <= 1
 _e_85_117#876:   x85 + x117 <= 1
 _e_86_128#877:   x86 + x128 <= 1
 _e_86_137#878:   x86 + x137 <= 1
 _e_86_114#879:   x86 + x114 <= 1
 _e_86_113#880:   x86 + x113 <= 1
 _e_86_125#881:   x86 + x125 <= 1
 _e_87_129#882:   x87 + x129 <= 1
 _e_87_102#883:   x87 + x102 <= 1
 _e_87_137#884:   x87 + x137 <= 1
 _e_87_143#885:   x87 + x143 <= 1
 _e_87_110#886:   x87 + x110 <= 1
 _e_87_124#887:   x87 + x124 <= 1
 _e_87_148#888:   x87 + x148 <= 1
 _e_87_89#889:    x87 + x89 <= 1
 _e_88_131#890:   x88 + x131 <= 1
 _e_88_102#891:   x88 + x102 <= 1
 _e_88_137#892:   x88 + x137 <= 1
 _e_88_141#893:   x88 + x141 <= 1
 _e_88_110#894:   x88 + x110 <= 1
 _e_88_123#895:   x88 + x123 <= 1
 _e_88_118#896:   x88 + x118 <= 1
 _e_88_90#897:    x88 + x90 <= 1
 _e_88_91#898:    x88 + x91 <= 1
 _e_89_133#899:   x89 + x133 <= 1
 _e_89_137#900:   x89 + x137 <= 1
 _e_89_110#901:   x89 + x110 <= 1
 _e_89_109#902:   x89 + x109 <= 1
 _e_89_144#903:   x89 + x144 <= 1
 _e_89_114#904:   x89 + x114 <= 1
 _e_89_148#905:   x89 + x148 <= 1
 _e_89_124#906:   x89 + x124 <= 1
 _e_89_126#907:   x89 + x126 <= 1
 _e_89_101#908:   x89 + x101 <= 1
 _e_90_103#909:   x90 + x103 <= 1
 _e_90_113#910:   x90 + x113 <= 1
 _e_90_127#911:   x90 + x127 <= 1
 _e_90_91#912:    x90 + x91 <= 1
 _e_90_118#913:   x90 + x118 <= 1
 _e_90_149#914:   x90 + x149 <= 1
 _e_91_109#915:   x91 + x109 <= 1
 _e_91_110#916:   x91 + x110 <= 1
 _e_91_143#917:   x91 + x143 <= 1
 _e_91_147#918:   x91 + x147 <= 1
 _e_91_119#919:   x91 + x119 <= 1
 _e_91_106#920:   x91 + x106 <= 1
 _e_91_126#921:   x91 + x126 <= 1
 _e_92_114#922:   x92 + x114 <= 1
 _e_92_142#923:   x92 + x142 <= 1
 _e_92_111#924:   x92 + x111 <= 1
 _e_92_118#925:   x92 + x118 <= 1
 _e_92_119#926:   x92 + x119 <= 1
 _e_93_96#927:    x93 + x96 <= 1
 _e_93_124#928:   x93 + x124 <= 1
 _e_94_96#929:    x94 + x96 <= 1
 _e_94_118#930:   x94 + x118 <= 1
 _e_95_134#931:   x95 + x134 <= 1
 _e_95_135#932:   x95 + x135 <= 1
 _e_95_104#933:   x95 + x104 <= 1
 _e_95_142#934:   x95 + x142 <= 1
 _e_95_127#935:   x95 + x127 <= 1
 _e_96_102#936:   x96 + x102 <= 1
 _e_96_135#937:   x96 + x135 <= 1
 _e_96_115#938:   x96 + x115 <= 1
 _e_96_116#939:   x96 + x116 <= 1
 _e_96_127#940:   x96 + x127 <= 1
 _e_97_123#941:   x97 + x123 <= 1
 _e_97_134#942:   x97 + x134 <= 1
 _e_97_112#943:   x97 + x112 <= 1
 _e_97_133#944:   x97 + x133 <= 1
 _e_98_145#945:   x98 + x145 <= 1
 _e_98_110#946:   x98 + x110 <= 1
 _e_98_136#947:   x98 + x136 <= 1
 _e_98_124#948:   x98 + x124 <= 1
 _e_99_145#949:   x99 + x145 <= 1
 _e_100_143#950:  x100 + x143 <= 1
 _e_100_121#951:  x100 + x121 <= 1
 _e_101_149#952:  x101 + x149 <= 1
 _e_101_103#953:  x101 + x103 <= 1
 _e_101_124#954:  x101 + x124 <= 1
 _e_102_142#955:  x102 + x142 <= 1
 _e_102_147#956:  x102 + x147 <= 1
 _e_102_120#957:  x102 + x120 <= 1
 _e_103_128#958:  x103 + x128 <= 1
 _e_103_132#959:  x103 + x132 <= 1
 _e_103_120#960:  x103 + x120 <= 1
 _e_104_133#961:  x104 + x133 <= 1
 _e_104_116#962:  x104 + x116 <= 1
 _e_104_121#963:  x104 + x121 <= 1
 _e_105_128#964:  x105 + x128 <= 1
 _e_105_106#965:  x105 + x106 <= 1
 _e_106_132#966:  x106 + x132 <= 1
 _e_106_119#967:  x106 + x119 <= 1
 _e_107_113#968:  x107 + x113 <= 1
 _e_108_112#969:  x108 + x112 <= 1
 _e_108_140#970:  x108 + x140 <= 1
 _e_108_118#971:  x108 + x118 <= 1
 _e_109_123#972:  x109 + x123 <= 1
 _e_109_143#973:  x109 + x143 <= 1
 _e_109_121#974:  x109 + x121 <= 1
 _e_110_123#975:  x110 + x123 <= 1
 _e_110_129#976:  x110 + x129 <= 1
 _e_110_127#977:  x110 + x127 <= 1
 _e_111_132#978:  x111 + x132 <= 1
 _e_111_133#979:  x111 + x133 <= 1
 _e_111_135#980:  x111 + x135 <= 1
 _e_111_119#981:  x111 + x119 <= 1
 _e_111_126#982:  x111 + x126 <= 1
 _e_112_143#983:  x112 + x143 <= 1
 _e_112_132#984:  x112 + x132 <= 1
 _e_113_135#985:  x113 + x135 <= 1
 _e_113_140#986:  x113 + x140 <= 1
 _e_113_145#987:  x113 + x145 <= 1
 _e_113_118#988:  x113 + x118 <= 1
 _e_113_123#989:  x113 + x123 <= 1
 _e_113_125#990:  x113 + x125 <= 1
 _e_114_128#991:  x114 + x128 <= 1
 _e_114_137#992:  x114 + x137 <= 1
 _e_115_132#993:  x115 + x132 <= 1
 _e_115_134#994:  x115 + x134 <= 1
 _e_115_142#995:  x115 + x142 <= 1
 _e_115_141#996:  x115 + x141 <= 1
 _e_115_119#997:  x115 + x119 <= 1
 _e_116_137#998:  x116 + x137 <= 1
 _e_116_139#999:  x116 + x139 <= 1
 _e_116_146#1000: x116 + x146 <= 1
 _e_116_120#1001: x116 + x120 <= 1
 _e_117_142#1002: x117 + x142 <= 1
 _e_117_122#1003: x117 + x122 <= 1
 _e_118_135#1004: x118 + x135 <= 1
 _e_118_124#1005: x118 + x124 <= 1
 _e_118_149#1006: x118 + x149 <= 1
 _e_118_125#1007: x118 + x125 <= 1
 _e_119_135#1008: x119 + x135 <= 1
 _e_119_143#1009: x119 + x143 <= 1
 _e_119_141#1010: x119 + x141 <= 1
 _e_119_142#1011: x119 + x142 <= 1
 _e_119_146#1012: x119 + x146 <= 1
 _e_119_127#1013: x119 + x127 <= 1
 _e_120_139#1014: x120 + x139 <= 1
 _e_120_136#1015: x120 + x136 <= 1
 _e_120_142#1016: x120 + x142 <= 1
 _e_120_146#1017: x120 + x146 <= 1
 _e_120_147#1018: x120 + x147 <= 1
 _e_121_138#1019: x121 + x138 <= 1
 _e_121_140#1020: x121 + x140 <= 1
 _e_121_124#1021: x121 + x124 <= 1
 _e_122_131#1022: x122 + x131 <= 1
 _e_122_140#1023: x122 + x140 <= 1
 _e_122_142#1024: x122 + x142 <= 1
 _e_122_141#1025: x122 + x141 <= 1
 _e_122_148#1026: x122 + x148 <= 1
 _e_122_125#1027: x122 + x125 <= 1
 _e_123_130#1028: x123 + x130 <= 1
 _e_124_128#1029: x124 + x128 <= 1
 _e_124_140#1030: x124 + x140 <= 1
 _e_125_139#1031: x125 + x139 <= 1
 _e_125_135#1032: x125 + x135 <= 1
 _e_126_134#1033: x126 + x134 <= 1
 _e_127_150#1034: x127 + x150 <= 1
 _e_128_140#1035: x128 + x140 <= 1
 _e_129_140#1036: x129 + x140 <= 1
 _e_129_144#1037: x129 + x144 <= 1
 _e_129_146#1038: x129 + x146 <= 1
 _e_131_143#1039: x131 + x143 <= 1
 _e_132_136#1040: x132 + x136 <= 1
 _e_132_141#1041: x132 + x141 <= 1
 _e_132_148#1042: x132 + x148 <= 1
 _e_132_142#1043: x132 + x142 <= 1
 _e_133_137#1044: x133 + x137 <= 1
 _e_133_142#1045: x133 + x142 <= 1
 _e_133_145#1046: x133 + x145 <= 1
 _e_133_147#1047: x133 + x147 <= 1
 _e_133_149#1048: x133 + x149 <= 1
 _e_134_140#1049: x134 + x140 <= 1
 _e_134_141#1050: x134 + x141 <= 1
 _e_134_143#1051: x134 + x143 <= 1
 _e_134_137#1052: x134 + x137 <= 1
 _e_135_145#1053: x135 + x145 <= 1
 _e_135_144#1054: x135 + x144 <= 1
 _e_135_147#1055: x135 + x147 <= 1
 _e_136_139#1056: x136 + x139 <= 1
 _e_136_140#1057: x136 + x140 <= 1
 _e_137_148#1058: x137 + x148 <= 1
 _e_137_144#1059: x137 + x144 <= 1
 _e_137_142#1060: x137 + x142 <= 1
 _e_138_150#1061: x138 + x150 <= 1
 _e_139_143#1062: x139 + x143 <= 1
 _e_143_146#1063: x143 + x146 <= 1
 _e_144_145#1064: x144 + x145 <= 1
 _e_144_147#1065: x144 + x147 <= 1
 _e_144_148#1066: x144 + x148 <= 1
 _e_145_147#1067: x145 + x147 <= 1
Bounds
 0 <= x1 <= 1
 0 <= x2 <= 1
 0 <= x3 <= 1
 0 <= x4 <= 1
 0 <= x5 <= 1
 0 <= x6 <= 1
 0 <= x7 <= 1
 0 <= x8 <= 1
 0 <= x9 <= 1
 0 <= x10 <= 1
 0 <= x11 <= 1
 0 <= x12 <= 1
 0 <= x13 <= 1
 0 <= x14 <= 1
 0 <= x15 <= 1
 0 <= x16 <= 1
 0 <= x17 <= 1
 0 <= x18 <= 1
 0 <= x19 <= 1
 0 <= x20 <= 1
 0 <= x21 <= 1
 0 <= x22 <= 1
 0 <= x23 <= 1
 0 <= x24 <= 1
 0 <= x25 <= 1
 0 <= x26 <= 1
 0 <= x27 <= 1
 0 <= x28 <= 1
 0 <= x29 <= 1
 0 <= x30 <= 1
 0 <= x31 <= 1
 0 <= x32 <= 1
 0 <= x33 <= 1
 0 <= x34 <= 1
 0 <= x35 <= 1
 0 <= x36 <= 1
 0 <= x37 <= 1
 0 <= x38 <= 1
 0 <= x39 <= 1
 0 <= x40 <= 1
 0 <= x41 <= 1
 0 <= x42 <= 1
 0 <= x43 <= 1
 0 <= x44 <= 1
 0 <= x45 <= 1
 0 <= x46 <= 1
 0 <= x47 <= 1
 0 <= x48 <= 1
 0 <= x49 <= 1
 0 <= x50 <= 1
 0 <= x51 <= 1
 0 <= x52 <= 1
 0 <= x53 <= 1
 0 <= x54 <= 1
 0 <= x55 <= 1
 0 <= x56 <= 1
 0 <= x57 <= 1
 0 <= x58 <= 1
 0 <= x59 <= 1
 0 <= x60 <= 1
 0 <= x61 <= 1
 0 <= x62 <= 1
 0 <= x63 <= 1
 0 <= x64 <= 1
 0 <= x65 <= 1
 0 <= x66 <= 1
 0 <= x67 <= 1
 0 <= x68 <= 1
 0 <= x69 <= 1
 0 <= x70 <= 1
 0 <= x71 <= 1
 0 <= x72 <= 1
 0 <= x73 <= 1
 0 <= x74 <= 1
 0 <= x75 <= 1
 0 <= x76 <= 1
 0 <= x77 <= 1
 0 <= x78 <= 1
 0 <= x79 <= 1
 0 <= x80 <= 1
 0 <= x81 <= 1
 0 <= x82 <= 1
 0 <= x83 <= 1
 0 <= x84 <= 1
 0 <= x85 <= 1
 0 <= x86 <= 1
 0 <= x87 <= 1
 0 <= x88 <= 1
 0 <= x89 <= 1
 0 <= x90 <= 1
 0 <= x91 <= 1
 0 <= x92 <= 1
 0 <= x93 <= 1
 0 <= x94 <= 1
 0 <= x95 <= 1
 0 <= x96 <= 1
 0 <= x97 <= 1
 0 <= x98 <= 1
 0 <= x99 <= 1
 0 <= x100 <= 1
 0 <= x101 <= 1
 0 <= x102 <= 1
 0 <= x103 <= 1
 0 <= x104 <= 1
 0 <= x105 <= 1
 0 <= x106 <= 1
 0 <= x107 <= 1
 0 <= x108 <= 1
 0 <= x109 <= 1
 0 <= x110 <= 1
 0 <= x111 <= 1
 0 <= x112 <= 1
 0 <= x113 <= 1
 0 <= x114 <= 1
 0 <= x115 <= 1
 0 <= x116 <= 1
 0 <= x117 <= 1
 0 <= x118 <= 1
 0 <= x119 <= 1
 0 <= x120 <= 1
 0 <= x121 <= 1
 0 <= x122 <= 1
 0 <= x123 <= 1
 0 <= x124 <= 1
 0 <= x125 <= 1
 0 <= x126 <= 1
 0 <= x127 <= 1
 0 <= x128 <= 1
 0 <= x129 <= 1
 0 <= x130 <= 1
 0 <= x131 <= 1
 0 <= x132 <= 1
 0 <= x133 <= 1
 0 <= x134 <= 1
 0 <= x135 <= 1
 0 <= x136 <= 1
 0 <= x137 <= 1
 0 <= x138 <= 1
 0 <= x139 <= 1
 0 <= x140 <= 1
 0 <= x141 <= 1
 0 <= x142 <= 1
 0 <= x143 <= 1
 0 <= x144 <= 1
 0 <= x145 <= 1
 0 <= x146 <= 1
 0 <= x147 <= 1
 0 <= x148 <= 1
 0 <= x149 <= 1
 0 <= x150 <= 1
Binaries
 x1  x2  x3  x4  x5  x6  x7  x8  x9  x10  x11  x12  x13  x14  x15  x16  x17 
 x18  x19  x20  x21  x22  x23  x24  x25  x26  x27  x28  x29  x30  x31  x32 
 x33  x34  x35  x36  x37  x38  x39  x40  x41  x42  x43  x44  x45  x46  x47 
 x48  x49  x50  x51  x52  x53  x54  x55  x56  x57  x58  x59  x60  x61  x62 
 x63  x64  x65  x66  x67  x68  x69  x70  x71  x72  x73  x74  x75  x76  x77 
 x78  x79  x80  x81  x82  x83  x84  x85  x86  x87  x88  x89  x90  x91  x92 
 x93  x94  x95  x96  x97  x98  x99  x100  x101  x102  x103  x104  x105  x106 
 x107  x108  x109  x110  x111  x112  x113  x114  x115  x116  x117  x118  x119 
 x120  x121  x122  x123  x124  x125  x126  x127  x128  x129  x130  x131  x132 
 x133  x134  x135  x136  x137  x138  x139  x140  x141  x142  x143  x144  x145 
 x146  x147  x148  x149  x150 
End
